c " random instance " 
p edges 200 4125
e 1 8
e 1 9
e 1 11
e 1 15
e 1 20
e 1 22
e 1 24
e 1 29
e 1 39
e 1 42
e 1 50
e 1 55
e 1 60
e 1 61
e 1 79
e 1 93
e 1 94
e 1 107
e 1 111
e 1 112
e 1 115
e 1 116
e 1 120
e 1 147
e 1 150
e 1 152
e 1 153
e 1 159
e 1 162
e 1 163
e 1 165
e 1 169
e 1 174
e 1 176
e 1 177
e 1 186
e 1 187
e 1 188
e 1 190
e 1 193
e 1 194
e 2 4
e 2 14
e 2 17
e 2 18
e 2 21
e 2 30
e 2 41
e 2 42
e 2 44
e 2 48
e 2 51
e 2 53
e 2 58
e 2 64
e 2 68
e 2 69
e 2 78
e 2 88
e 2 89
e 2 90
e 2 91
e 2 95
e 2 101
e 2 102
e 2 110
e 2 128
e 2 130
e 2 132
e 2 133
e 2 136
e 2 142
e 2 154
e 2 156
e 2 161
e 2 166
e 2 177
e 2 181
e 2 182
e 2 184
e 2 186
e 2 194
e 2 197
e 2 199
e 3 4
e 3 14
e 3 23
e 3 24
e 3 25
e 3 26
e 3 27
e 3 30
e 3 35
e 3 37
e 3 40
e 3 43
e 3 47
e 3 58
e 3 60
e 3 63
e 3 64
e 3 72
e 3 78
e 3 81
e 3 98
e 3 99
e 3 101
e 3 108
e 3 118
e 3 120
e 3 126
e 3 130
e 3 132
e 3 134
e 3 136
e 3 137
e 3 139
e 3 149
e 3 160
e 3 170
e 3 171
e 3 174
e 3 176
e 3 182
e 3 183
e 3 184
e 3 189
e 3 194
e 3 196
e 3 197
e 4 7
e 4 9
e 4 15
e 4 16
e 4 22
e 4 27
e 4 32
e 4 37
e 4 38
e 4 40
e 4 41
e 4 45
e 4 50
e 4 54
e 4 55
e 4 57
e 4 61
e 4 62
e 4 67
e 4 70
e 4 73
e 4 79
e 4 81
e 4 82
e 4 85
e 4 93
e 4 94
e 4 98
e 4 102
e 4 111
e 4 114
e 4 121
e 4 122
e 4 135
e 4 137
e 4 141
e 4 145
e 4 159
e 4 163
e 4 164
e 4 169
e 4 177
e 4 181
e 4 186
e 4 191
e 4 193
e 4 199
e 4 200
e 5 8
e 5 11
e 5 14
e 5 17
e 5 25
e 5 26
e 5 31
e 5 33
e 5 39
e 5 41
e 5 49
e 5 56
e 5 60
e 5 72
e 5 76
e 5 85
e 5 86
e 5 89
e 5 96
e 5 100
e 5 106
e 5 110
e 5 113
e 5 120
e 5 132
e 5 134
e 5 156
e 5 158
e 5 176
e 5 180
e 5 182
e 5 183
e 5 185
e 5 187
e 5 192
e 5 198
e 5 199
e 5 200
e 6 17
e 6 23
e 6 26
e 6 39
e 6 45
e 6 50
e 6 54
e 6 55
e 6 56
e 6 73
e 6 75
e 6 81
e 6 87
e 6 88
e 6 100
e 6 113
e 6 139
e 6 143
e 6 144
e 6 149
e 6 164
e 6 169
e 6 170
e 6 173
e 6 176
e 6 193
e 6 195
e 6 198
e 7 15
e 7 18
e 7 19
e 7 24
e 7 27
e 7 31
e 7 32
e 7 35
e 7 40
e 7 41
e 7 43
e 7 45
e 7 56
e 7 66
e 7 77
e 7 87
e 7 89
e 7 96
e 7 110
e 7 116
e 7 120
e 7 121
e 7 139
e 7 143
e 7 145
e 7 146
e 7 150
e 7 151
e 7 154
e 7 156
e 7 161
e 7 167
e 7 170
e 7 172
e 7 177
e 7 183
e 7 185
e 7 188
e 7 189
e 7 193
e 7 195
e 7 196
e 8 10
e 8 14
e 8 20
e 8 25
e 8 26
e 8 27
e 8 30
e 8 36
e 8 45
e 8 49
e 8 55
e 8 58
e 8 67
e 8 71
e 8 72
e 8 74
e 8 78
e 8 83
e 8 86
e 8 87
e 8 89
e 8 92
e 8 95
e 8 99
e 8 105
e 8 107
e 8 113
e 8 119
e 8 120
e 8 131
e 8 132
e 8 135
e 8 136
e 8 142
e 8 150
e 8 151
e 8 156
e 8 162
e 8 163
e 8 164
e 8 165
e 8 177
e 8 182
e 8 185
e 8 189
e 8 191
e 8 194
e 8 198
e 9 16
e 9 18
e 9 19
e 9 21
e 9 27
e 9 28
e 9 29
e 9 31
e 9 35
e 9 37
e 9 38
e 9 40
e 9 47
e 9 51
e 9 64
e 9 69
e 9 70
e 9 76
e 9 79
e 9 80
e 9 82
e 9 84
e 9 86
e 9 87
e 9 90
e 9 94
e 9 97
e 9 99
e 9 102
e 9 107
e 9 115
e 9 133
e 9 134
e 9 135
e 9 136
e 9 140
e 9 141
e 9 145
e 9 153
e 9 161
e 9 163
e 9 164
e 9 175
e 9 176
e 9 188
e 9 196
e 9 197
e 9 199
e 9 200
e 10 11
e 10 15
e 10 19
e 10 20
e 10 37
e 10 46
e 10 47
e 10 48
e 10 51
e 10 62
e 10 73
e 10 83
e 10 84
e 10 87
e 10 93
e 10 94
e 10 96
e 10 102
e 10 109
e 10 113
e 10 114
e 10 117
e 10 121
e 10 122
e 10 125
e 10 126
e 10 133
e 10 135
e 10 160
e 10 161
e 10 162
e 10 168
e 10 173
e 10 178
e 10 189
e 11 13
e 11 14
e 11 15
e 11 16
e 11 54
e 11 56
e 11 57
e 11 58
e 11 70
e 11 71
e 11 73
e 11 83
e 11 84
e 11 85
e 11 87
e 11 91
e 11 94
e 11 95
e 11 96
e 11 99
e 11 100
e 11 101
e 11 102
e 11 108
e 11 111
e 11 112
e 11 115
e 11 128
e 11 129
e 11 130
e 11 134
e 11 136
e 11 137
e 11 151
e 11 153
e 11 155
e 11 158
e 11 174
e 11 177
e 11 179
e 11 184
e 11 196
e 11 197
e 11 198
e 11 199
e 12 15
e 12 17
e 12 26
e 12 27
e 12 38
e 12 48
e 12 57
e 12 58
e 12 59
e 12 64
e 12 67
e 12 68
e 12 71
e 12 76
e 12 78
e 12 80
e 12 86
e 12 88
e 12 98
e 12 108
e 12 116
e 12 127
e 12 131
e 12 132
e 12 133
e 12 137
e 12 140
e 12 143
e 12 157
e 12 163
e 12 170
e 12 184
e 12 193
e 12 199
e 13 14
e 13 20
e 13 21
e 13 22
e 13 24
e 13 34
e 13 35
e 13 40
e 13 46
e 13 68
e 13 70
e 13 71
e 13 75
e 13 76
e 13 82
e 13 84
e 13 86
e 13 96
e 13 98
e 13 100
e 13 101
e 13 103
e 13 117
e 13 134
e 13 136
e 13 139
e 13 140
e 13 152
e 13 156
e 13 160
e 13 162
e 13 165
e 13 172
e 13 174
e 13 175
e 13 178
e 13 181
e 13 187
e 14 15
e 14 16
e 14 22
e 14 24
e 14 28
e 14 30
e 14 39
e 14 54
e 14 56
e 14 57
e 14 58
e 14 60
e 14 61
e 14 62
e 14 66
e 14 68
e 14 75
e 14 78
e 14 80
e 14 85
e 14 86
e 14 95
e 14 99
e 14 101
e 14 102
e 14 103
e 14 104
e 14 105
e 14 108
e 14 115
e 14 117
e 14 123
e 14 126
e 14 127
e 14 145
e 14 155
e 14 160
e 14 170
e 14 171
e 14 173
e 14 175
e 14 180
e 14 181
e 14 185
e 14 186
e 14 192
e 14 200
e 15 44
e 15 45
e 15 49
e 15 55
e 15 56
e 15 57
e 15 75
e 15 77
e 15 88
e 15 95
e 15 99
e 15 105
e 15 108
e 15 114
e 15 118
e 15 120
e 15 122
e 15 139
e 15 140
e 15 143
e 15 152
e 15 158
e 15 166
e 15 168
e 15 169
e 15 175
e 15 178
e 15 179
e 15 187
e 15 190
e 15 191
e 15 198
e 16 23
e 16 24
e 16 28
e 16 36
e 16 38
e 16 46
e 16 52
e 16 58
e 16 60
e 16 62
e 16 67
e 16 69
e 16 75
e 16 84
e 16 88
e 16 94
e 16 95
e 16 100
e 16 105
e 16 106
e 16 107
e 16 108
e 16 111
e 16 114
e 16 121
e 16 122
e 16 123
e 16 126
e 16 128
e 16 129
e 16 138
e 16 152
e 16 154
e 16 155
e 16 157
e 16 158
e 16 159
e 16 163
e 16 164
e 16 174
e 16 176
e 16 178
e 16 179
e 16 183
e 16 184
e 16 185
e 16 186
e 16 194
e 16 196
e 16 198
e 17 38
e 17 42
e 17 43
e 17 51
e 17 52
e 17 55
e 17 62
e 17 68
e 17 69
e 17 73
e 17 81
e 17 82
e 17 102
e 17 104
e 17 111
e 17 112
e 17 113
e 17 117
e 17 124
e 17 126
e 17 135
e 17 136
e 17 137
e 17 138
e 17 139
e 17 142
e 17 144
e 17 159
e 17 163
e 17 176
e 17 183
e 17 187
e 17 191
e 17 194
e 17 197
e 17 200
e 18 28
e 18 34
e 18 36
e 18 47
e 18 63
e 18 65
e 18 67
e 18 68
e 18 70
e 18 74
e 18 77
e 18 88
e 18 90
e 18 91
e 18 93
e 18 100
e 18 106
e 18 110
e 18 113
e 18 117
e 18 118
e 18 131
e 18 132
e 18 134
e 18 144
e 18 157
e 18 165
e 18 167
e 18 174
e 18 175
e 18 176
e 18 185
e 18 187
e 19 22
e 19 28
e 19 32
e 19 34
e 19 37
e 19 39
e 19 41
e 19 43
e 19 47
e 19 48
e 19 54
e 19 57
e 19 64
e 19 65
e 19 74
e 19 75
e 19 77
e 19 81
e 19 87
e 19 91
e 19 99
e 19 106
e 19 115
e 19 129
e 19 130
e 19 136
e 19 149
e 19 150
e 19 156
e 19 159
e 19 161
e 19 163
e 19 164
e 19 171
e 19 194
e 20 29
e 20 36
e 20 37
e 20 40
e 20 43
e 20 46
e 20 47
e 20 62
e 20 68
e 20 71
e 20 76
e 20 79
e 20 80
e 20 86
e 20 93
e 20 94
e 20 108
e 20 114
e 20 122
e 20 126
e 20 128
e 20 136
e 20 138
e 20 140
e 20 146
e 20 147
e 20 149
e 20 150
e 20 158
e 20 161
e 20 162
e 20 163
e 20 164
e 20 180
e 20 181
e 20 183
e 20 184
e 20 195
e 20 199
e 21 27
e 21 29
e 21 34
e 21 36
e 21 39
e 21 40
e 21 42
e 21 47
e 21 49
e 21 50
e 21 53
e 21 54
e 21 80
e 21 81
e 21 84
e 21 85
e 21 94
e 21 96
e 21 98
e 21 99
e 21 100
e 21 103
e 21 118
e 21 121
e 21 123
e 21 126
e 21 129
e 21 131
e 21 136
e 21 138
e 21 142
e 21 143
e 21 148
e 21 150
e 21 157
e 21 162
e 21 164
e 21 165
e 21 166
e 21 174
e 21 177
e 21 181
e 21 182
e 21 184
e 21 193
e 21 196
e 21 200
e 22 30
e 22 32
e 22 41
e 22 44
e 22 51
e 22 52
e 22 58
e 22 61
e 22 64
e 22 66
e 22 67
e 22 68
e 22 72
e 22 73
e 22 75
e 22 76
e 22 81
e 22 83
e 22 86
e 22 89
e 22 105
e 22 107
e 22 113
e 22 114
e 22 123
e 22 136
e 22 142
e 22 143
e 22 148
e 22 151
e 22 152
e 22 153
e 22 154
e 22 156
e 22 170
e 22 194
e 22 198
e 22 200
e 23 29
e 23 37
e 23 48
e 23 49
e 23 51
e 23 54
e 23 57
e 23 64
e 23 68
e 23 70
e 23 81
e 23 82
e 23 85
e 23 86
e 23 87
e 23 95
e 23 101
e 23 103
e 23 106
e 23 128
e 23 130
e 23 131
e 23 137
e 23 138
e 23 148
e 23 152
e 23 157
e 23 161
e 23 162
e 23 164
e 23 166
e 23 169
e 23 176
e 23 180
e 23 198
e 24 27
e 24 29
e 24 31
e 24 37
e 24 38
e 24 40
e 24 56
e 24 58
e 24 66
e 24 70
e 24 75
e 24 81
e 24 85
e 24 87
e 24 91
e 24 95
e 24 99
e 24 100
e 24 104
e 24 107
e 24 115
e 24 116
e 24 120
e 24 122
e 24 129
e 24 131
e 24 135
e 24 144
e 24 145
e 24 151
e 24 153
e 24 155
e 24 156
e 24 157
e 24 159
e 24 161
e 24 164
e 24 166
e 24 171
e 24 176
e 24 184
e 24 195
e 24 199
e 25 29
e 25 32
e 25 35
e 25 37
e 25 48
e 25 49
e 25 58
e 25 68
e 25 70
e 25 75
e 25 80
e 25 83
e 25 87
e 25 91
e 25 93
e 25 110
e 25 112
e 25 117
e 25 127
e 25 130
e 25 131
e 25 138
e 25 146
e 25 147
e 25 151
e 25 157
e 25 162
e 25 173
e 25 176
e 25 180
e 25 183
e 25 195
e 26 27
e 26 35
e 26 41
e 26 42
e 26 46
e 26 47
e 26 54
e 26 58
e 26 66
e 26 80
e 26 85
e 26 89
e 26 91
e 26 92
e 26 93
e 26 97
e 26 104
e 26 105
e 26 109
e 26 119
e 26 129
e 26 133
e 26 135
e 26 151
e 26 157
e 26 158
e 26 171
e 26 181
e 26 188
e 26 193
e 27 30
e 27 34
e 27 36
e 27 43
e 27 44
e 27 45
e 27 51
e 27 65
e 27 72
e 27 79
e 27 84
e 27 87
e 27 89
e 27 90
e 27 93
e 27 110
e 27 113
e 27 121
e 27 123
e 27 125
e 27 128
e 27 133
e 27 136
e 27 146
e 27 153
e 27 154
e 27 156
e 27 160
e 27 165
e 27 167
e 27 168
e 27 169
e 27 178
e 27 182
e 27 186
e 27 188
e 27 195
e 27 196
e 27 198
e 28 31
e 28 32
e 28 34
e 28 37
e 28 38
e 28 49
e 28 50
e 28 51
e 28 53
e 28 57
e 28 60
e 28 62
e 28 64
e 28 79
e 28 80
e 28 81
e 28 88
e 28 91
e 28 93
e 28 95
e 28 96
e 28 108
e 28 122
e 28 125
e 28 127
e 28 130
e 28 135
e 28 138
e 28 139
e 28 146
e 28 147
e 28 148
e 28 150
e 28 152
e 28 153
e 28 158
e 28 162
e 28 163
e 28 176
e 28 185
e 28 186
e 28 187
e 28 193
e 28 197
e 28 198
e 29 31
e 29 44
e 29 55
e 29 59
e 29 66
e 29 72
e 29 73
e 29 74
e 29 77
e 29 82
e 29 86
e 29 87
e 29 90
e 29 91
e 29 100
e 29 106
e 29 107
e 29 108
e 29 116
e 29 117
e 29 125
e 29 136
e 29 138
e 29 147
e 29 152
e 29 155
e 29 156
e 29 157
e 29 160
e 29 165
e 29 185
e 29 186
e 29 190
e 29 192
e 30 35
e 30 46
e 30 48
e 30 61
e 30 64
e 30 68
e 30 74
e 30 78
e 30 83
e 30 90
e 30 95
e 30 99
e 30 100
e 30 116
e 30 124
e 30 125
e 30 128
e 30 132
e 30 142
e 30 143
e 30 149
e 30 151
e 30 162
e 30 164
e 30 165
e 30 173
e 30 174
e 30 176
e 30 187
e 31 32
e 31 33
e 31 53
e 31 54
e 31 57
e 31 59
e 31 66
e 31 67
e 31 69
e 31 74
e 31 76
e 31 88
e 31 97
e 31 103
e 31 104
e 31 105
e 31 108
e 31 113
e 31 123
e 31 126
e 31 130
e 31 131
e 31 134
e 31 136
e 31 139
e 31 142
e 31 143
e 31 150
e 31 151
e 31 155
e 31 160
e 31 162
e 31 164
e 31 170
e 31 172
e 31 174
e 31 179
e 31 180
e 31 181
e 31 186
e 31 189
e 31 190
e 31 191
e 31 192
e 32 35
e 32 41
e 32 44
e 32 52
e 32 57
e 32 68
e 32 77
e 32 90
e 32 93
e 32 95
e 32 98
e 32 99
e 32 105
e 32 130
e 32 135
e 32 151
e 32 163
e 32 168
e 32 173
e 32 175
e 32 178
e 32 179
e 32 181
e 32 189
e 32 197
e 32 198
e 32 199
e 33 38
e 33 43
e 33 44
e 33 46
e 33 67
e 33 68
e 33 74
e 33 79
e 33 80
e 33 89
e 33 95
e 33 96
e 33 98
e 33 99
e 33 100
e 33 109
e 33 110
e 33 118
e 33 119
e 33 120
e 33 121
e 33 135
e 33 147
e 33 150
e 33 151
e 33 153
e 33 167
e 33 172
e 33 173
e 33 178
e 33 181
e 33 190
e 33 193
e 33 196
e 33 198
e 34 39
e 34 41
e 34 50
e 34 53
e 34 57
e 34 61
e 34 72
e 34 74
e 34 76
e 34 83
e 34 88
e 34 89
e 34 101
e 34 102
e 34 104
e 34 106
e 34 114
e 34 120
e 34 121
e 34 132
e 34 134
e 34 139
e 34 150
e 34 151
e 34 156
e 34 162
e 34 165
e 34 169
e 34 182
e 34 186
e 34 192
e 35 37
e 35 40
e 35 50
e 35 58
e 35 71
e 35 73
e 35 75
e 35 76
e 35 77
e 35 78
e 35 87
e 35 90
e 35 93
e 35 95
e 35 109
e 35 112
e 35 118
e 35 119
e 35 121
e 35 123
e 35 124
e 35 129
e 35 132
e 35 144
e 35 146
e 35 152
e 35 156
e 35 157
e 35 162
e 35 174
e 35 182
e 35 185
e 35 187
e 35 191
e 35 196
e 35 199
e 35 200
e 36 43
e 36 44
e 36 58
e 36 69
e 36 70
e 36 72
e 36 76
e 36 80
e 36 85
e 36 88
e 36 92
e 36 97
e 36 101
e 36 110
e 36 114
e 36 117
e 36 118
e 36 122
e 36 135
e 36 143
e 36 148
e 36 160
e 36 162
e 36 175
e 36 176
e 36 177
e 36 181
e 36 184
e 36 185
e 36 186
e 36 193
e 36 195
e 37 46
e 37 47
e 37 51
e 37 52
e 37 59
e 37 61
e 37 71
e 37 72
e 37 74
e 37 84
e 37 94
e 37 103
e 37 106
e 37 108
e 37 120
e 37 131
e 37 132
e 37 142
e 37 143
e 37 145
e 37 149
e 37 152
e 37 153
e 37 156
e 37 161
e 37 162
e 37 164
e 37 174
e 37 176
e 37 180
e 37 181
e 37 183
e 37 186
e 37 195
e 38 47
e 38 48
e 38 52
e 38 58
e 38 59
e 38 67
e 38 73
e 38 75
e 38 77
e 38 81
e 38 83
e 38 90
e 38 95
e 38 105
e 38 119
e 38 123
e 38 125
e 38 128
e 38 141
e 38 151
e 38 169
e 38 172
e 38 174
e 38 177
e 38 178
e 38 187
e 38 192
e 38 198
e 39 47
e 39 55
e 39 58
e 39 61
e 39 62
e 39 72
e 39 73
e 39 76
e 39 79
e 39 82
e 39 83
e 39 88
e 39 92
e 39 95
e 39 110
e 39 111
e 39 119
e 39 123
e 39 130
e 39 135
e 39 137
e 39 140
e 39 141
e 39 143
e 39 166
e 39 178
e 39 179
e 39 185
e 39 188
e 39 189
e 39 192
e 39 196
e 39 199
e 40 42
e 40 46
e 40 47
e 40 58
e 40 61
e 40 64
e 40 67
e 40 69
e 40 70
e 40 71
e 40 76
e 40 77
e 40 98
e 40 102
e 40 103
e 40 106
e 40 112
e 40 121
e 40 135
e 40 136
e 40 142
e 40 154
e 40 155
e 40 157
e 40 158
e 40 174
e 40 175
e 40 179
e 40 182
e 40 192
e 41 54
e 41 73
e 41 75
e 41 79
e 41 94
e 41 95
e 41 97
e 41 106
e 41 108
e 41 116
e 41 117
e 41 118
e 41 119
e 41 120
e 41 135
e 41 147
e 41 150
e 41 156
e 41 158
e 41 160
e 41 164
e 41 169
e 41 170
e 41 182
e 41 184
e 41 185
e 41 186
e 41 191
e 41 198
e 41 200
e 42 43
e 42 48
e 42 51
e 42 53
e 42 55
e 42 57
e 42 65
e 42 70
e 42 74
e 42 82
e 42 83
e 42 84
e 42 90
e 42 91
e 42 103
e 42 107
e 42 108
e 42 113
e 42 119
e 42 122
e 42 133
e 42 135
e 42 137
e 42 140
e 42 146
e 42 151
e 42 158
e 42 159
e 42 163
e 42 166
e 42 169
e 42 173
e 42 175
e 42 185
e 42 186
e 42 197
e 42 198
e 43 45
e 43 47
e 43 62
e 43 65
e 43 66
e 43 69
e 43 81
e 43 85
e 43 88
e 43 102
e 43 104
e 43 107
e 43 109
e 43 116
e 43 117
e 43 122
e 43 126
e 43 133
e 43 135
e 43 142
e 43 143
e 43 152
e 43 161
e 43 168
e 43 176
e 43 186
e 43 190
e 43 191
e 43 193
e 43 196
e 43 200
e 44 50
e 44 52
e 44 56
e 44 57
e 44 59
e 44 68
e 44 69
e 44 74
e 44 87
e 44 91
e 44 95
e 44 104
e 44 106
e 44 117
e 44 118
e 44 122
e 44 130
e 44 134
e 44 136
e 44 137
e 44 139
e 44 144
e 44 155
e 44 159
e 44 161
e 44 171
e 44 176
e 44 178
e 44 179
e 44 180
e 44 183
e 44 185
e 44 186
e 44 195
e 44 196
e 44 197
e 45 46
e 45 47
e 45 48
e 45 56
e 45 60
e 45 63
e 45 67
e 45 75
e 45 79
e 45 80
e 45 82
e 45 84
e 45 86
e 45 89
e 45 94
e 45 100
e 45 106
e 45 110
e 45 111
e 45 115
e 45 117
e 45 123
e 45 124
e 45 125
e 45 129
e 45 131
e 45 140
e 45 141
e 45 142
e 45 145
e 45 147
e 45 148
e 45 152
e 45 154
e 45 155
e 45 161
e 45 168
e 45 169
e 45 175
e 45 183
e 45 185
e 45 192
e 45 195
e 45 197
e 46 47
e 46 50
e 46 51
e 46 54
e 46 58
e 46 71
e 46 76
e 46 78
e 46 90
e 46 104
e 46 114
e 46 118
e 46 126
e 46 131
e 46 134
e 46 140
e 46 142
e 46 146
e 46 148
e 46 152
e 46 156
e 46 166
e 46 167
e 46 175
e 46 182
e 46 193
e 46 200
e 47 60
e 47 65
e 47 68
e 47 78
e 47 79
e 47 88
e 47 91
e 47 92
e 47 97
e 47 98
e 47 99
e 47 104
e 47 110
e 47 111
e 47 120
e 47 121
e 47 132
e 47 134
e 47 137
e 47 144
e 47 151
e 47 153
e 47 156
e 47 162
e 47 173
e 47 181
e 47 184
e 47 191
e 47 199
e 48 49
e 48 53
e 48 54
e 48 56
e 48 59
e 48 65
e 48 66
e 48 68
e 48 70
e 48 71
e 48 75
e 48 83
e 48 89
e 48 93
e 48 99
e 48 101
e 48 102
e 48 105
e 48 107
e 48 110
e 48 119
e 48 123
e 48 126
e 48 128
e 48 129
e 48 132
e 48 140
e 48 143
e 48 145
e 48 151
e 48 156
e 48 167
e 48 180
e 48 181
e 48 185
e 48 190
e 48 195
e 48 196
e 48 200
e 49 52
e 49 53
e 49 57
e 49 62
e 49 64
e 49 79
e 49 82
e 49 91
e 49 92
e 49 98
e 49 101
e 49 107
e 49 113
e 49 116
e 49 119
e 49 123
e 49 129
e 49 132
e 49 137
e 49 160
e 49 166
e 49 168
e 49 178
e 49 181
e 50 52
e 50 54
e 50 57
e 50 64
e 50 65
e 50 101
e 50 107
e 50 113
e 50 118
e 50 120
e 50 123
e 50 132
e 50 137
e 50 139
e 50 142
e 50 145
e 50 155
e 50 157
e 50 159
e 50 160
e 50 165
e 50 168
e 50 176
e 50 177
e 50 178
e 50 182
e 50 186
e 50 187
e 50 189
e 50 192
e 50 199
e 51 54
e 51 57
e 51 64
e 51 71
e 51 75
e 51 77
e 51 80
e 51 94
e 51 95
e 51 116
e 51 120
e 51 122
e 51 123
e 51 126
e 51 134
e 51 146
e 51 147
e 51 157
e 51 162
e 51 169
e 51 193
e 51 196
e 52 55
e 52 56
e 52 57
e 52 58
e 52 59
e 52 66
e 52 76
e 52 80
e 52 94
e 52 95
e 52 96
e 52 97
e 52 98
e 52 100
e 52 105
e 52 106
e 52 111
e 52 116
e 52 125
e 52 129
e 52 130
e 52 131
e 52 132
e 52 161
e 52 162
e 52 164
e 52 166
e 52 173
e 52 174
e 52 175
e 52 176
e 52 182
e 52 183
e 52 185
e 52 190
e 52 196
e 53 57
e 53 69
e 53 75
e 53 77
e 53 86
e 53 87
e 53 90
e 53 93
e 53 95
e 53 102
e 53 106
e 53 107
e 53 118
e 53 121
e 53 122
e 53 123
e 53 124
e 53 127
e 53 129
e 53 132
e 53 136
e 53 140
e 53 141
e 53 144
e 53 148
e 53 151
e 53 153
e 53 158
e 53 168
e 53 169
e 53 171
e 53 173
e 53 180
e 53 182
e 53 184
e 53 189
e 53 190
e 53 194
e 53 196
e 53 197
e 53 199
e 54 55
e 54 60
e 54 63
e 54 86
e 54 87
e 54 88
e 54 89
e 54 92
e 54 94
e 54 96
e 54 97
e 54 113
e 54 119
e 54 125
e 54 126
e 54 133
e 54 136
e 54 139
e 54 140
e 54 143
e 54 151
e 54 155
e 54 156
e 54 158
e 54 160
e 54 161
e 54 163
e 54 169
e 54 174
e 54 183
e 54 187
e 54 190
e 54 191
e 54 192
e 54 193
e 54 194
e 54 195
e 54 196
e 54 197
e 54 200
e 55 61
e 55 67
e 55 70
e 55 71
e 55 85
e 55 94
e 55 102
e 55 105
e 55 106
e 55 116
e 55 121
e 55 126
e 55 132
e 55 134
e 55 136
e 55 140
e 55 145
e 55 149
e 55 150
e 55 159
e 55 160
e 55 161
e 55 167
e 55 168
e 55 170
e 55 171
e 55 172
e 55 176
e 55 177
e 55 184
e 55 186
e 55 195
e 56 58
e 56 67
e 56 71
e 56 77
e 56 78
e 56 79
e 56 101
e 56 105
e 56 109
e 56 111
e 56 115
e 56 116
e 56 132
e 56 133
e 56 135
e 56 145
e 56 149
e 56 154
e 56 157
e 56 167
e 56 168
e 56 169
e 56 177
e 56 179
e 56 188
e 56 189
e 56 192
e 56 200
e 57 58
e 57 59
e 57 65
e 57 90
e 57 103
e 57 105
e 57 110
e 57 116
e 57 120
e 57 125
e 57 126
e 57 129
e 57 131
e 57 144
e 57 146
e 57 153
e 57 154
e 57 159
e 57 160
e 57 164
e 57 166
e 57 170
e 57 171
e 57 177
e 57 191
e 57 192
e 57 196
e 58 64
e 58 65
e 58 69
e 58 70
e 58 72
e 58 75
e 58 79
e 58 80
e 58 87
e 58 89
e 58 98
e 58 103
e 58 108
e 58 115
e 58 124
e 58 125
e 58 130
e 58 131
e 58 132
e 58 141
e 58 144
e 58 145
e 58 150
e 58 151
e 58 152
e 58 154
e 58 169
e 58 176
e 58 178
e 58 179
e 58 180
e 58 182
e 58 184
e 58 187
e 58 193
e 58 196
e 58 198
e 59 67
e 59 73
e 59 74
e 59 79
e 59 99
e 59 104
e 59 109
e 59 110
e 59 120
e 59 124
e 59 132
e 59 135
e 59 144
e 59 156
e 59 159
e 59 172
e 59 177
e 59 181
e 59 184
e 59 190
e 59 194
e 60 63
e 60 66
e 60 83
e 60 84
e 60 90
e 60 118
e 60 121
e 60 126
e 60 140
e 60 141
e 60 149
e 60 155
e 60 157
e 60 158
e 60 160
e 60 161
e 60 168
e 60 170
e 60 171
e 60 177
e 60 187
e 60 188
e 60 191
e 60 192
e 60 198
e 61 63
e 61 65
e 61 79
e 61 92
e 61 95
e 61 97
e 61 104
e 61 106
e 61 115
e 61 116
e 61 127
e 61 132
e 61 133
e 61 134
e 61 138
e 61 143
e 61 151
e 61 169
e 61 170
e 61 171
e 61 175
e 61 185
e 61 187
e 61 190
e 61 197
e 61 199
e 62 67
e 62 69
e 62 81
e 62 93
e 62 95
e 62 100
e 62 102
e 62 105
e 62 107
e 62 118
e 62 120
e 62 126
e 62 130
e 62 141
e 62 148
e 62 163
e 62 167
e 62 191
e 62 193
e 62 195
e 62 196
e 62 197
e 62 199
e 63 64
e 63 70
e 63 73
e 63 83
e 63 88
e 63 91
e 63 95
e 63 103
e 63 105
e 63 111
e 63 117
e 63 123
e 63 125
e 63 126
e 63 144
e 63 153
e 63 162
e 63 167
e 63 170
e 63 172
e 63 180
e 63 183
e 63 184
e 63 197
e 63 200
e 64 67
e 64 68
e 64 76
e 64 78
e 64 93
e 64 96
e 64 97
e 64 99
e 64 102
e 64 106
e 64 113
e 64 119
e 64 123
e 64 124
e 64 126
e 64 128
e 64 133
e 64 138
e 64 139
e 64 145
e 64 154
e 64 159
e 64 162
e 64 164
e 64 166
e 64 173
e 64 181
e 64 186
e 64 188
e 64 191
e 64 196
e 65 69
e 65 72
e 65 87
e 65 91
e 65 94
e 65 98
e 65 102
e 65 105
e 65 106
e 65 107
e 65 108
e 65 114
e 65 115
e 65 123
e 65 132
e 65 134
e 65 135
e 65 138
e 65 141
e 65 146
e 65 148
e 65 151
e 65 159
e 65 160
e 65 161
e 65 164
e 65 165
e 65 167
e 65 175
e 65 183
e 65 184
e 65 194
e 65 198
e 66 67
e 66 75
e 66 78
e 66 90
e 66 91
e 66 100
e 66 101
e 66 102
e 66 104
e 66 108
e 66 113
e 66 117
e 66 119
e 66 120
e 66 129
e 66 132
e 66 136
e 66 141
e 66 153
e 66 158
e 66 160
e 66 166
e 66 168
e 66 177
e 66 178
e 66 181
e 66 194
e 66 195
e 67 76
e 67 78
e 67 79
e 67 91
e 67 92
e 67 94
e 67 99
e 67 103
e 67 105
e 67 111
e 67 112
e 67 119
e 67 126
e 67 127
e 67 132
e 67 139
e 67 154
e 67 156
e 67 165
e 67 168
e 67 170
e 67 171
e 67 175
e 67 180
e 67 192
e 68 69
e 68 72
e 68 76
e 68 81
e 68 86
e 68 88
e 68 94
e 68 95
e 68 97
e 68 106
e 68 111
e 68 121
e 68 133
e 68 142
e 68 143
e 68 159
e 68 167
e 68 189
e 68 196
e 68 198
e 69 73
e 69 74
e 69 78
e 69 80
e 69 86
e 69 89
e 69 92
e 69 105
e 69 113
e 69 115
e 69 119
e 69 125
e 69 134
e 69 142
e 69 143
e 69 152
e 69 155
e 69 156
e 69 159
e 69 162
e 69 169
e 69 179
e 69 184
e 69 186
e 69 187
e 69 188
e 69 192
e 69 194
e 70 72
e 70 77
e 70 80
e 70 94
e 70 97
e 70 100
e 70 101
e 70 112
e 70 116
e 70 126
e 70 128
e 70 138
e 70 150
e 70 151
e 70 152
e 70 158
e 70 160
e 70 163
e 70 169
e 70 173
e 70 177
e 71 82
e 71 89
e 71 92
e 71 93
e 71 109
e 71 113
e 71 115
e 71 129
e 71 132
e 71 138
e 71 145
e 71 147
e 71 148
e 71 149
e 71 165
e 71 167
e 71 168
e 71 180
e 71 181
e 71 182
e 71 192
e 71 194
e 71 196
e 72 77
e 72 78
e 72 81
e 72 83
e 72 84
e 72 85
e 72 87
e 72 92
e 72 98
e 72 102
e 72 106
e 72 110
e 72 112
e 72 115
e 72 116
e 72 118
e 72 124
e 72 125
e 72 128
e 72 147
e 72 154
e 72 159
e 72 160
e 72 169
e 72 170
e 72 172
e 72 174
e 72 183
e 72 185
e 72 192
e 73 78
e 73 81
e 73 85
e 73 88
e 73 90
e 73 95
e 73 98
e 73 108
e 73 117
e 73 118
e 73 141
e 73 144
e 73 152
e 73 155
e 73 157
e 73 159
e 73 161
e 73 162
e 73 166
e 73 168
e 73 177
e 73 178
e 73 190
e 73 194
e 73 197
e 74 75
e 74 84
e 74 89
e 74 95
e 74 100
e 74 120
e 74 130
e 74 133
e 74 135
e 74 137
e 74 140
e 74 143
e 74 145
e 74 152
e 74 166
e 74 169
e 74 170
e 74 173
e 74 184
e 74 187
e 74 188
e 74 192
e 75 79
e 75 82
e 75 86
e 75 93
e 75 95
e 75 99
e 75 100
e 75 106
e 75 107
e 75 114
e 75 115
e 75 117
e 75 118
e 75 119
e 75 120
e 75 122
e 75 131
e 75 146
e 75 153
e 75 155
e 75 168
e 75 175
e 75 182
e 75 186
e 75 192
e 75 196
e 76 83
e 76 86
e 76 90
e 76 94
e 76 99
e 76 100
e 76 102
e 76 106
e 76 111
e 76 121
e 76 125
e 76 131
e 76 132
e 76 134
e 76 142
e 76 149
e 76 159
e 76 160
e 76 162
e 76 175
e 76 192
e 76 197
e 76 199
e 77 85
e 77 93
e 77 95
e 77 98
e 77 105
e 77 109
e 77 114
e 77 121
e 77 125
e 77 133
e 77 137
e 77 143
e 77 146
e 77 151
e 77 153
e 77 157
e 77 158
e 77 160
e 77 162
e 77 164
e 77 169
e 77 170
e 77 174
e 77 175
e 77 179
e 77 183
e 77 198
e 78 81
e 78 91
e 78 93
e 78 100
e 78 106
e 78 117
e 78 120
e 78 121
e 78 127
e 78 152
e 78 153
e 78 156
e 78 158
e 78 160
e 78 164
e 78 165
e 78 166
e 78 173
e 78 176
e 78 179
e 78 186
e 78 188
e 78 189
e 78 197
e 79 85
e 79 89
e 79 93
e 79 107
e 79 115
e 79 116
e 79 119
e 79 130
e 79 140
e 79 141
e 79 145
e 79 147
e 79 151
e 79 160
e 79 166
e 79 168
e 79 170
e 79 171
e 79 178
e 79 179
e 79 184
e 79 185
e 79 189
e 79 192
e 79 198
e 80 82
e 80 85
e 80 87
e 80 89
e 80 93
e 80 94
e 80 98
e 80 113
e 80 117
e 80 119
e 80 120
e 80 122
e 80 123
e 80 143
e 80 145
e 80 156
e 80 158
e 80 162
e 80 166
e 80 168
e 80 175
e 80 178
e 80 183
e 80 189
e 80 190
e 80 197
e 81 83
e 81 86
e 81 93
e 81 103
e 81 104
e 81 108
e 81 120
e 81 125
e 81 128
e 81 132
e 81 133
e 81 147
e 81 149
e 81 153
e 81 162
e 81 182
e 81 185
e 81 190
e 81 194
e 81 199
e 82 85
e 82 90
e 82 98
e 82 111
e 82 119
e 82 122
e 82 124
e 82 128
e 82 133
e 82 142
e 82 151
e 82 152
e 82 153
e 82 155
e 82 164
e 82 168
e 82 169
e 82 171
e 82 175
e 82 177
e 82 180
e 82 187
e 82 188
e 82 189
e 82 193
e 82 195
e 82 199
e 83 95
e 83 99
e 83 106
e 83 112
e 83 114
e 83 117
e 83 129
e 83 136
e 83 138
e 83 149
e 83 165
e 83 185
e 83 186
e 83 188
e 83 191
e 83 192
e 83 196
e 84 91
e 84 100
e 84 101
e 84 110
e 84 112
e 84 120
e 84 128
e 84 131
e 84 139
e 84 141
e 84 147
e 84 150
e 84 154
e 84 156
e 84 157
e 84 158
e 84 161
e 84 164
e 84 169
e 84 170
e 84 172
e 84 176
e 84 188
e 84 191
e 85 86
e 85 94
e 85 97
e 85 109
e 85 110
e 85 112
e 85 119
e 85 125
e 85 135
e 85 141
e 85 142
e 85 153
e 85 156
e 85 166
e 85 168
e 85 171
e 85 172
e 85 174
e 85 176
e 85 179
e 85 183
e 85 185
e 85 187
e 85 193
e 85 195
e 85 196
e 85 198
e 85 200
e 86 89
e 86 99
e 86 101
e 86 116
e 86 120
e 86 121
e 86 124
e 86 133
e 86 137
e 86 138
e 86 139
e 86 140
e 86 149
e 86 153
e 86 156
e 86 162
e 86 167
e 86 185
e 86 186
e 86 191
e 86 193
e 86 195
e 86 198
e 87 103
e 87 108
e 87 110
e 87 116
e 87 117
e 87 122
e 87 125
e 87 126
e 87 133
e 87 138
e 87 143
e 87 147
e 87 157
e 87 160
e 87 162
e 87 166
e 87 168
e 87 171
e 87 177
e 87 191
e 87 192
e 87 196
e 87 200
e 88 92
e 88 94
e 88 96
e 88 102
e 88 113
e 88 120
e 88 135
e 88 143
e 88 154
e 88 160
e 88 162
e 88 172
e 88 175
e 88 182
e 88 187
e 88 195
e 88 199
e 88 200
e 89 90
e 89 94
e 89 95
e 89 97
e 89 102
e 89 105
e 89 106
e 89 123
e 89 124
e 89 127
e 89 130
e 89 134
e 89 143
e 89 147
e 89 149
e 89 150
e 89 156
e 89 157
e 89 178
e 89 184
e 89 192
e 89 193
e 89 194
e 89 197
e 90 95
e 90 96
e 90 98
e 90 103
e 90 111
e 90 114
e 90 115
e 90 121
e 90 122
e 90 124
e 90 127
e 90 145
e 90 149
e 90 150
e 90 152
e 90 157
e 90 162
e 90 164
e 90 168
e 90 171
e 90 173
e 90 175
e 90 179
e 90 181
e 90 184
e 90 194
e 90 196
e 90 197
e 91 101
e 91 102
e 91 118
e 91 119
e 91 123
e 91 130
e 91 133
e 91 136
e 91 137
e 91 144
e 91 152
e 91 156
e 91 165
e 91 169
e 91 175
e 91 191
e 91 192
e 91 197
e 92 100
e 92 109
e 92 113
e 92 119
e 92 126
e 92 128
e 92 133
e 92 143
e 92 145
e 92 150
e 92 151
e 92 153
e 92 154
e 92 159
e 92 173
e 92 178
e 92 183
e 92 185
e 92 195
e 92 197
e 93 95
e 93 107
e 93 110
e 93 117
e 93 118
e 93 125
e 93 126
e 93 132
e 93 139
e 93 143
e 93 146
e 93 147
e 93 157
e 93 159
e 93 179
e 93 183
e 93 186
e 93 187
e 93 190
e 93 196
e 93 197
e 93 199
e 93 200
e 94 95
e 94 104
e 94 105
e 94 106
e 94 109
e 94 110
e 94 111
e 94 115
e 94 118
e 94 129
e 94 137
e 94 138
e 94 140
e 94 141
e 94 146
e 94 152
e 94 153
e 94 154
e 94 158
e 94 165
e 94 166
e 94 167
e 94 168
e 94 170
e 94 175
e 94 176
e 94 190
e 94 198
e 95 104
e 95 105
e 95 109
e 95 110
e 95 115
e 95 117
e 95 124
e 95 137
e 95 140
e 95 144
e 95 151
e 95 156
e 95 168
e 95 171
e 95 172
e 95 175
e 95 186
e 95 188
e 95 190
e 95 198
e 95 200
e 96 97
e 96 105
e 96 106
e 96 107
e 96 109
e 96 125
e 96 129
e 96 132
e 96 134
e 96 135
e 96 136
e 96 138
e 96 141
e 96 145
e 96 154
e 96 156
e 96 159
e 96 172
e 96 174
e 96 179
e 96 180
e 96 181
e 96 182
e 96 188
e 96 195
e 97 101
e 97 126
e 97 127
e 97 128
e 97 129
e 97 131
e 97 138
e 97 139
e 97 148
e 97 150
e 97 152
e 97 153
e 97 158
e 97 159
e 97 160
e 97 164
e 97 171
e 97 174
e 97 176
e 97 180
e 97 181
e 97 189
e 97 196
e 98 101
e 98 104
e 98 105
e 98 106
e 98 107
e 98 118
e 98 120
e 98 121
e 98 122
e 98 139
e 98 144
e 98 156
e 98 167
e 98 178
e 98 186
e 98 196
e 99 108
e 99 111
e 99 113
e 99 114
e 99 116
e 99 118
e 99 119
e 99 122
e 99 123
e 99 133
e 99 134
e 99 150
e 99 158
e 99 160
e 99 161
e 99 162
e 99 165
e 99 168
e 99 169
e 99 187
e 99 195
e 99 196
e 99 197
e 100 105
e 100 106
e 100 107
e 100 109
e 100 114
e 100 115
e 100 123
e 100 124
e 100 129
e 100 132
e 100 134
e 100 138
e 100 140
e 100 142
e 100 143
e 100 149
e 100 150
e 100 151
e 100 154
e 100 155
e 100 164
e 100 174
e 100 175
e 100 176
e 100 179
e 100 181
e 100 188
e 100 196
e 100 197
e 100 199
e 101 108
e 101 109
e 101 112
e 101 113
e 101 120
e 101 129
e 101 134
e 101 136
e 101 146
e 101 161
e 101 165
e 101 168
e 101 172
e 101 179
e 101 183
e 101 185
e 101 192
e 102 105
e 102 106
e 102 108
e 102 115
e 102 117
e 102 118
e 102 128
e 102 131
e 102 133
e 102 147
e 102 148
e 102 158
e 102 161
e 102 162
e 102 163
e 102 164
e 102 165
e 102 170
e 102 171
e 102 178
e 102 180
e 102 183
e 102 187
e 102 191
e 102 196
e 102 198
e 103 105
e 103 108
e 103 109
e 103 113
e 103 120
e 103 122
e 103 126
e 103 127
e 103 147
e 103 149
e 103 155
e 103 171
e 103 181
e 103 187
e 104 112
e 104 113
e 104 117
e 104 119
e 104 122
e 104 128
e 104 132
e 104 140
e 104 142
e 104 146
e 104 154
e 104 156
e 104 164
e 104 165
e 104 168
e 104 184
e 104 188
e 104 190
e 104 192
e 104 198
e 105 108
e 105 110
e 105 114
e 105 116
e 105 120
e 105 121
e 105 133
e 105 134
e 105 143
e 105 144
e 105 166
e 105 167
e 105 183
e 105 193
e 105 194
e 105 195
e 105 196
e 106 110
e 106 113
e 106 114
e 106 116
e 106 126
e 106 127
e 106 131
e 106 132
e 106 134
e 106 136
e 106 142
e 106 144
e 106 145
e 106 155
e 106 158
e 106 159
e 106 163
e 106 167
e 106 170
e 106 176
e 106 180
e 106 181
e 106 186
e 106 190
e 106 195
e 106 196
e 106 197
e 106 198
e 106 199
e 106 200
e 107 108
e 107 109
e 107 112
e 107 115
e 107 120
e 107 126
e 107 129
e 107 141
e 107 155
e 107 157
e 107 160
e 107 162
e 107 166
e 107 173
e 107 174
e 107 179
e 107 182
e 107 183
e 107 189
e 107 195
e 107 197
e 108 116
e 108 124
e 108 125
e 108 134
e 108 135
e 108 139
e 108 146
e 108 147
e 108 149
e 108 150
e 108 159
e 108 160
e 108 163
e 108 167
e 108 172
e 108 176
e 108 178
e 108 179
e 108 193
e 109 115
e 109 123
e 109 124
e 109 132
e 109 138
e 109 141
e 109 144
e 109 156
e 109 162
e 109 165
e 109 167
e 109 182
e 109 185
e 109 188
e 109 193
e 110 118
e 110 122
e 110 129
e 110 130
e 110 135
e 110 138
e 110 140
e 110 142
e 110 155
e 110 159
e 110 163
e 110 168
e 110 171
e 110 174
e 110 175
e 110 183
e 110 192
e 110 195
e 110 197
e 111 112
e 111 113
e 111 114
e 111 118
e 111 121
e 111 126
e 111 131
e 111 141
e 111 144
e 111 158
e 111 161
e 111 162
e 111 173
e 111 177
e 111 179
e 111 186
e 111 188
e 111 190
e 111 198
e 111 199
e 111 200
e 112 116
e 112 118
e 112 119
e 112 145
e 112 146
e 112 149
e 112 152
e 112 155
e 112 156
e 112 159
e 112 167
e 112 169
e 112 171
e 112 176
e 112 177
e 112 180
e 112 184
e 112 185
e 112 191
e 112 192
e 112 193
e 112 197
e 112 200
e 113 114
e 113 119
e 113 120
e 113 123
e 113 124
e 113 131
e 113 132
e 113 134
e 113 138
e 113 140
e 113 144
e 113 152
e 113 155
e 113 165
e 113 169
e 113 170
e 113 171
e 113 181
e 113 185
e 113 187
e 113 197
e 113 200
e 114 116
e 114 121
e 114 124
e 114 126
e 114 128
e 114 134
e 114 136
e 114 140
e 114 144
e 114 145
e 114 146
e 114 148
e 114 152
e 114 156
e 114 159
e 114 169
e 114 171
e 114 172
e 114 180
e 114 186
e 114 189
e 114 190
e 114 195
e 114 199
e 115 126
e 115 128
e 115 130
e 115 131
e 115 132
e 115 140
e 115 160
e 115 161
e 115 164
e 115 168
e 115 180
e 115 183
e 115 185
e 115 192
e 115 194
e 115 196
e 115 200
e 116 117
e 116 118
e 116 120
e 116 121
e 116 133
e 116 134
e 116 143
e 116 149
e 116 153
e 116 158
e 116 160
e 116 171
e 116 176
e 116 179
e 116 185
e 116 189
e 116 191
e 117 122
e 117 134
e 117 142
e 117 154
e 117 157
e 117 162
e 117 163
e 117 164
e 117 167
e 117 168
e 117 178
e 117 186
e 117 188
e 117 196
e 117 197
e 118 122
e 118 130
e 118 136
e 118 144
e 118 148
e 118 152
e 118 156
e 118 159
e 118 166
e 118 169
e 118 171
e 118 174
e 118 175
e 118 181
e 118 182
e 118 183
e 118 189
e 118 191
e 119 122
e 119 130
e 119 154
e 119 159
e 119 160
e 119 161
e 119 162
e 119 164
e 119 170
e 119 172
e 119 173
e 119 181
e 119 182
e 119 183
e 119 185
e 119 187
e 119 194
e 119 198
e 120 122
e 120 124
e 120 135
e 120 137
e 120 138
e 120 141
e 120 148
e 120 149
e 120 155
e 120 159
e 120 161
e 120 178
e 120 184
e 120 186
e 120 187
e 120 189
e 120 191
e 120 196
e 121 123
e 121 124
e 121 125
e 121 129
e 121 143
e 121 148
e 121 150
e 121 154
e 121 157
e 121 161
e 121 164
e 121 167
e 121 172
e 121 179
e 121 184
e 121 187
e 121 188
e 121 190
e 121 195
e 121 200
e 122 125
e 122 129
e 122 137
e 122 143
e 122 145
e 122 150
e 122 152
e 122 156
e 122 160
e 122 166
e 122 170
e 122 176
e 122 177
e 122 187
e 122 189
e 122 199
e 122 200
e 123 125
e 123 131
e 123 142
e 123 148
e 123 154
e 123 159
e 123 163
e 123 168
e 123 175
e 123 180
e 123 190
e 123 198
e 124 127
e 124 128
e 124 137
e 124 140
e 124 146
e 124 156
e 124 161
e 124 165
e 124 166
e 124 167
e 124 171
e 124 176
e 124 180
e 124 187
e 124 194
e 125 128
e 125 138
e 125 140
e 125 141
e 125 150
e 125 157
e 125 158
e 125 159
e 125 160
e 125 161
e 125 166
e 125 168
e 125 176
e 125 194
e 125 196
e 126 130
e 126 153
e 126 154
e 126 156
e 126 161
e 126 162
e 126 166
e 126 170
e 126 174
e 126 179
e 126 184
e 126 185
e 126 186
e 127 128
e 127 134
e 127 135
e 127 138
e 127 141
e 127 146
e 127 154
e 127 156
e 127 157
e 127 159
e 127 167
e 127 175
e 127 180
e 127 184
e 127 186
e 127 190
e 127 192
e 127 196
e 128 137
e 128 138
e 128 141
e 128 144
e 128 163
e 128 167
e 128 170
e 128 182
e 128 192
e 128 200
e 129 137
e 129 138
e 129 143
e 129 147
e 129 164
e 129 175
e 129 190
e 129 191
e 129 193
e 130 133
e 130 135
e 130 136
e 130 138
e 130 145
e 130 147
e 130 150
e 130 151
e 130 154
e 130 156
e 130 158
e 130 166
e 130 168
e 130 171
e 130 180
e 130 189
e 130 193
e 130 195
e 131 133
e 131 136
e 131 144
e 131 145
e 131 146
e 131 157
e 131 163
e 131 164
e 131 167
e 131 173
e 131 176
e 131 180
e 131 181
e 131 189
e 131 196
e 131 199
e 132 134
e 132 138
e 132 140
e 132 144
e 132 147
e 132 151
e 132 153
e 132 159
e 132 165
e 132 168
e 132 171
e 132 174
e 132 178
e 132 179
e 132 181
e 132 182
e 132 183
e 133 140
e 133 141
e 133 143
e 133 153
e 133 161
e 133 165
e 133 167
e 133 172
e 133 179
e 133 185
e 133 188
e 133 191
e 133 196
e 134 142
e 134 148
e 134 160
e 134 166
e 134 170
e 134 176
e 134 178
e 134 180
e 134 182
e 134 186
e 134 194
e 134 197
e 135 139
e 135 143
e 135 144
e 135 149
e 135 151
e 135 153
e 135 154
e 135 155
e 135 158
e 135 159
e 135 162
e 135 170
e 135 171
e 135 177
e 135 179
e 135 194
e 135 198
e 136 141
e 136 144
e 136 148
e 136 167
e 136 168
e 136 184
e 136 188
e 136 193
e 136 195
e 137 144
e 137 145
e 137 156
e 137 159
e 137 163
e 137 174
e 137 178
e 137 183
e 137 187
e 137 188
e 137 191
e 137 193
e 137 196
e 138 140
e 138 144
e 138 147
e 138 163
e 138 171
e 138 172
e 138 180
e 138 181
e 138 182
e 138 185
e 138 192
e 138 193
e 138 200
e 139 142
e 139 145
e 139 148
e 139 150
e 139 151
e 139 157
e 139 160
e 139 167
e 139 171
e 139 176
e 139 181
e 139 182
e 139 185
e 139 195
e 139 199
e 139 200
e 140 143
e 140 151
e 140 152
e 140 159
e 140 164
e 140 172
e 140 173
e 140 181
e 140 183
e 140 186
e 140 187
e 140 191
e 141 154
e 141 168
e 141 169
e 141 171
e 141 174
e 141 198
e 142 147
e 142 152
e 142 156
e 142 159
e 142 165
e 142 167
e 142 173
e 142 177
e 142 180
e 142 182
e 142 188
e 142 191
e 142 196
e 142 198
e 142 200
e 143 144
e 143 145
e 143 158
e 143 179
e 143 183
e 143 184
e 143 189
e 143 190
e 143 191
e 143 196
e 143 200
e 144 149
e 144 151
e 144 155
e 144 156
e 144 161
e 144 162
e 144 165
e 144 166
e 144 171
e 144 177
e 144 184
e 144 187
e 144 189
e 144 192
e 145 149
e 145 161
e 145 172
e 145 176
e 145 187
e 145 188
e 145 192
e 145 195
e 145 197
e 146 151
e 146 152
e 146 159
e 146 165
e 146 176
e 146 188
e 146 190
e 146 195
e 146 197
e 147 153
e 147 163
e 147 173
e 147 181
e 147 187
e 147 194
e 148 149
e 148 153
e 148 156
e 148 169
e 148 172
e 148 173
e 148 176
e 148 185
e 148 186
e 148 192
e 148 193
e 148 195
e 149 161
e 149 176
e 149 187
e 149 190
e 150 151
e 150 155
e 150 167
e 150 168
e 150 175
e 150 179
e 150 185
e 150 186
e 150 188
e 150 191
e 150 194
e 150 199
e 151 152
e 151 158
e 151 169
e 151 171
e 151 183
e 151 184
e 151 191
e 151 198
e 152 153
e 152 158
e 152 160
e 152 175
e 152 184
e 152 187
e 152 199
e 153 162
e 153 170
e 153 172
e 153 173
e 153 177
e 153 184
e 153 188
e 154 160
e 154 166
e 154 169
e 154 175
e 154 177
e 154 185
e 154 186
e 154 189
e 154 193
e 154 197
e 154 198
e 155 162
e 155 163
e 155 167
e 155 168
e 155 173
e 155 176
e 155 180
e 155 181
e 155 182
e 155 186
e 155 188
e 155 192
e 156 161
e 156 162
e 156 170
e 156 171
e 156 180
e 156 192
e 156 195
e 156 196
e 156 197
e 156 199
e 157 167
e 157 174
e 157 191
e 157 196
e 157 200
e 158 160
e 158 161
e 158 168
e 158 170
e 158 172
e 158 173
e 158 179
e 158 180
e 158 183
e 158 187
e 158 188
e 158 189
e 158 190
e 158 192
e 158 193
e 158 194
e 158 195
e 158 200
e 159 166
e 159 169
e 159 176
e 159 181
e 159 185
e 159 198
e 159 200
e 160 166
e 160 175
e 160 176
e 160 177
e 160 181
e 160 188
e 160 198
e 161 167
e 161 174
e 161 175
e 161 183
e 161 184
e 161 193
e 161 194
e 161 197
e 162 173
e 162 185
e 162 189
e 162 193
e 162 199
e 163 166
e 163 172
e 163 174
e 163 181
e 163 190
e 163 195
e 164 169
e 164 170
e 164 177
e 164 179
e 164 186
e 164 193
e 164 198
e 164 200
e 165 172
e 165 177
e 165 178
e 165 187
e 166 176
e 166 177
e 166 184
e 166 185
e 166 192
e 166 197
e 167 172
e 167 173
e 167 178
e 167 180
e 167 187
e 167 194
e 167 198
e 167 200
e 168 175
e 168 183
e 168 185
e 168 188
e 168 191
e 168 193
e 169 171
e 169 182
e 169 188
e 169 193
e 169 194
e 169 199
e 169 200
e 170 176
e 170 179
e 170 198
e 171 179
e 171 181
e 171 186
e 171 189
e 171 190
e 171 193
e 171 195
e 172 175
e 172 177
e 172 182
e 172 186
e 172 189
e 172 193
e 173 179
e 173 184
e 173 186
e 173 188
e 173 196
e 174 177
e 174 181
e 174 186
e 174 194
e 175 177
e 175 179
e 175 190
e 175 196
e 176 182
e 177 184
e 177 197
e 178 181
e 178 183
e 178 184
e 178 191
e 178 199
e 179 181
e 179 186
e 179 187
e 179 191
e 179 195
e 179 196
e 179 198
e 180 187
e 180 200
e 181 184
e 181 189
e 181 192
e 181 197
e 181 198
e 181 199
e 181 200
e 182 183
e 182 189
e 182 190
e 182 199
e 183 188
e 183 196
e 184 195
e 185 189
e 185 193
e 185 197
e 185 200
e 186 192
e 186 195
e 186 200
e 187 190
e 187 199
e 188 193
e 189 191
e 189 192
e 189 197
e 190 195
e 191 192
e 191 193
e 191 194
e 191 198
e 192 194
e 193 195
e 193 196
e 194 199
e 194 200
e 196 198
